n = 35;
m = 42;
w = [4,9,6,2,8,9,2,7,4,5,4,6,4,1,10,6,10,8,4,7,9,8,9,4,3,2,5,6,1,7,6,4,10,2,6,6,4,5,2,9,8,8];
edges = array2d(1..m, 1..2, [1,4,2,8,2,10,2,13,3,9,3,28,3,32,4,5,4,6,4,33,6,18,6,31,6,35,7,14,7,28,9,12,9,22,10,21,10,27,11,15,11,29,11,32,13,22,14,26,14,31,15,28,15,35,16,22,16,24,16,26,17,30,17,34,18,21,19,27,20,25,21,35,23,32,25,31,26,34,28,35,29,34,30,33]);
